# Random Circle Problem
param d := 0.05; 
param n := 10; 
param radius := 2.00; 
param v0 := 
1 4.92
2 5.85
3 5.06
4 5.44
5 4.94
6 5.46
7 5.31
8 5.45
9 5.49
10 5.46
;
param cap := 
1 3.36720
2 3.94121
3 4.00405
4 5.40230
5 5.98149
6 5.89283
7 0.47727
8 1.45850
9 2.37473
10 2.32683
;
param x0 := 
1 2.00
2 1.62
3 0.62
4 -0.62
5 -1.62
6 -2.00
7 -1.62
8 -0.62
9 0.62
10 1.62
;
param y0 := 
1 -0.00
2 1.18
3 1.90
4 1.90
5 1.18
6 0.00
7 -1.18
8 -1.90
9 -1.90
10 -1.18
;
